
Gurobi 11.0.3 (linux64) logging started Mon 18 Nov 2024 11:49:24 PM CST

Set parameter LogFile to value "/home/dlcole3/graph_abstraction/hierarchical_graphs/git_storage/CS1/HP_low_reserves/gurobi_logs/serial/logfile_DA_23.log"
Set parameter TimeLimit to value 900

Gurobi 11.0.3 (linux64) logging started Mon 18 Nov 2024 11:49:25 PM CST

Set parameter LogFile to value "/home/dlcole3/graph_abstraction/hierarchical_graphs/git_storage/CS1/HP_low_reserves/gurobi_logs/serial/logfile_DA_23.log"
Gurobi Optimizer version 11.0.3 build v11.0.3rc0 (linux64 - "Ubuntu 18.04.3 LTS")

CPU model: Intel(R) Xeon(R) CPU E5-2698 v4 @ 2.20GHz, instruction set [SSE2|AVX|AVX2]
Thread count: 40 physical cores, 80 logical processors, using up to 20 threads

Optimize a model with 35850 rows, 31725 columns and 164765 nonzeros
Model fingerprint: 0x17993e9b
Variable types: 19950 continuous, 11775 integer (11775 binary)
Coefficient statistics:
  Matrix range     [5e-02, 2e+04]
  Objective range  [1e+00, 8e+04]
  Bounds range     [5e-02, 2e+05]
  RHS range        [4e-02, 7e+03]
Presolve removed 5861 rows and 6773 columns
Presolve time: 0.71s
Presolved: 29989 rows, 24952 columns, 139171 nonzeros
Variable types: 15029 continuous, 9923 integer (9923 binary)
Found heuristic solution: objective 1.093646e+09
Found heuristic solution: objective 1.081600e+09
Found heuristic solution: objective 7.940548e+08
Deterministic concurrent LP optimizer: primal and dual simplex
Showing primal log only...

Concurrent spin time: 0.00s

Solved with dual simplex

Root relaxation: objective 1.181440e+07, 12880 iterations, 0.88 seconds (0.66 work units)

    Nodes    |    Current Node    |     Objective Bounds      |     Work
 Expl Unexpl |  Obj  Depth IntInf | Incumbent    BestBd   Gap | It/Node Time

     0     0 1.1814e+07    0   93 7.9405e+08 1.1814e+07  98.5%     -    2s
H    0     0                    7.902130e+08 1.1814e+07  98.5%     -    2s
H    0     0                    2.149086e+07 1.1816e+07  45.0%     -    3s
H    0     0                    2.100551e+07 1.1816e+07  43.8%     -    3s
     0     0 1.1816e+07    0  119 2.1006e+07 1.1816e+07  43.8%     -    3s
H    0     0                    1.424442e+07 1.1818e+07  17.0%     -    3s
     0     0 1.1818e+07    0  122 1.4244e+07 1.1818e+07  17.0%     -    4s
     0     0 1.1818e+07    0  133 1.4244e+07 1.1818e+07  17.0%     -    4s
     0     0 1.1818e+07    0  133 1.4244e+07 1.1818e+07  17.0%     -    4s
H    0     0                    1.390296e+07 1.1818e+07  15.0%     -    5s
     0     0 1.1818e+07    0  133 1.3903e+07 1.1818e+07  15.0%     -    5s
H    0     0                    1.292296e+07 1.1818e+07  8.55%     -    5s
H    0     0                    1.292022e+07 1.1818e+07  8.53%     -    5s
     0     2 1.1818e+07    0  133 1.2920e+07 1.1818e+07  8.53%     -    6s
H   31    52                    1.291114e+07 1.1822e+07  8.44%   236   10s
H   32    52                    1.194754e+07 1.1822e+07  1.05%   230   10s
H   36    52                    1.192860e+07 1.1822e+07  0.89%   217   10s
H   48    52                    1.192721e+07 1.1823e+07  0.87%   202   10s
   195   215 1.1828e+07   10   87 1.1927e+07 1.1824e+07  0.87%   157   15s
H  199   215                    1.192109e+07 1.1824e+07  0.81%   155   15s
H  204   215                    1.191881e+07 1.1824e+07  0.80%   155   15s
H  401   438                    1.191660e+07 1.1824e+07  0.78%   123   19s
H  433   438                    1.191644e+07 1.1824e+07  0.78%   118   19s
   503   532 1.1838e+07   24   80 1.1916e+07 1.1824e+07  0.78%   114   20s
H  854   835                    1.191586e+07 1.1824e+07  0.77%  97.1   23s
H  876   835                    1.191113e+07 1.1824e+07  0.73%  96.5   23s
H  885   835                    1.190742e+07 1.1824e+07  0.70%  96.4   23s
H 1006   981                    1.188068e+07 1.1824e+07  0.48%  93.5   24s
H 1037   987                    1.186049e+07 1.1824e+07  0.31%  92.9   33s
H 1063   987                    1.185696e+07 1.1824e+07  0.28%  92.3   33s
  1223  1163 1.1851e+07   54   82 1.1857e+07 1.1824e+07  0.28%  90.6   35s
H 2104  1166                    1.185692e+07 1.1824e+07  0.28%  77.8   39s
  2126  1280 1.1852e+07   71   52 1.1857e+07 1.1824e+07  0.28%  77.5   40s
H 2319  1120                    1.185347e+07 1.1824e+07  0.25%  75.5   50s
H 2321  1100                    1.185024e+07 1.1824e+07  0.22%  75.4   50s
  3479  1298 1.1837e+07    8   91 1.1850e+07 1.1832e+07  0.16%  75.2   56s
H 4017  1513                    1.184971e+07 1.1832e+07  0.15%  74.9   60s
  4018  1506 1.1843e+07   13  133 1.1850e+07 1.1832e+07  0.15%  74.9   65s
  4025  1514 1.1832e+07   13   60 1.1850e+07 1.1832e+07  0.15%  78.7   70s
  4168  1533 1.1832e+07   23   64 1.1850e+07 1.1832e+07  0.15%  80.4   75s
H 4183  1452                    1.184971e+07 1.1832e+07  0.15%  80.3   75s
H 4185  1379                    1.184970e+07 1.1832e+07  0.15%  80.2   75s
H 4319  1330                    1.184970e+07 1.1832e+07  0.15%  79.1   77s
  4755  1382 1.1848e+07   44   47 1.1850e+07 1.1832e+07  0.15%  76.8   80s
  5363  1394     cutoff   32      1.1850e+07 1.1832e+07  0.15%  72.7   87s
H 5370  1326                    1.184970e+07 1.1832e+07  0.15%  72.7   87s
H 5375  1264                    1.184970e+07 1.1832e+07  0.15%  72.8   87s
H 5376  1204                    1.184959e+07 1.1832e+07  0.15%  72.7   87s
H 5386  1156                    1.184958e+07 1.1832e+07  0.15%  72.7   97s
H 5389  1102                    1.184956e+07 1.1832e+07  0.15%  72.7   97s
H 5391  1051                    1.184956e+07 1.1832e+07  0.15%  72.7   97s
H 5396  1003                    1.184955e+07 1.1832e+07  0.15%  72.7   97s
H 5891  1022                    1.184955e+07 1.1833e+07  0.14%  70.7   99s
  6048  1087 1.1839e+07   28   52 1.1850e+07 1.1833e+07  0.14%  69.8  100s
H 6075  1035                    1.184954e+07 1.1833e+07  0.14%  69.6  100s
H 6079   994                    1.184954e+07 1.1833e+07  0.14%  69.5  100s
H 6196   916                    1.184952e+07 1.1833e+07  0.14%  69.1  100s
H 6526  1126                    1.184952e+07 1.1834e+07  0.13%  67.0  101s
H 6954  1266                    1.184952e+07 1.1835e+07  0.13%  64.7  102s
* 7155  1357             172    1.184952e+07 1.1835e+07  0.13%  63.9  103s
  7818  1678     cutoff   61      1.1850e+07 1.1836e+07  0.11%  60.8  105s
* 7896  1678             175    1.184952e+07 1.1836e+07  0.11%  60.7  105s

Explored 9902 nodes (569844 simplex iterations) in 109.07 seconds (105.49 work units)
Thread count was 20 (of 80 available processors)

Solution count 10: 1.18495e+07 1.18495e+07 1.18495e+07 ... 1.18496e+07

Optimal solution found (tolerance 1.00e-03)
Best objective 1.184952002598e+07, best bound 1.183788886345e+07, gap 0.0982%

User-callback calls 36176, time in user-callback 0.04 sec
